comment
   1.0000000000000000
   10.9202145373576691    0.0000000000000000    0.0000000000000000
    0.0000000000000000   10.9202145373576691    0.0000000000000000
    0.0000000000000000    0.0000000000000000   10.9202145373576691
   H   O   K
  111  56  1
Direct
 0.784409   0.309676   0.147836
 0.787143   0.458920   0.147836
 0.675461   0.778206   0.734696
 0.624538   0.688485   0.842544
 0.874162   0.695563   0.634479
 0.999372   0.750908   0.575128
 0.717787   0.772319   0.463584
 0.579645   0.804478   0.509874
 0.999207   0.953027   0.388918
 0.903447   0.843060   0.357166
 0.636812   0.149099   0.396103
 0.758970   0.149610   0.310430
 0.147880   0.658235   0.377809
 0.236148   0.776410   0.355097
 0.803037   0.488121   0.799656
 0.758035   0.415098   0.921787
 0.147359   0.999784   0.147911
 0.264583   0.907540   0.151903
 0.998940   0.569045   0.147757
 0.998687   0.718177   0.154132
 0.580939   0.164752   0.147813
 0.432732   0.148905   0.154245
 0.241895   0.260990   0.576633
 0.147879   0.147798   0.601537
 0.899591   0.317916   0.369639
 0.998348   0.391246   0.285153
 0.998253   0.300683   0.787918
 0.999316   0.151444   0.785162
 0.286892   0.999914   0.701260
 0.147927   0.999900   0.755556
 0.791246   0.171551   0.999648
 0.654359   0.147968   0.945189
 0.304428   0.147680   0.764775
 0.453365   0.155150   0.769185
 0.999221   0.963593   0.621951
 0.857029   0.999838   0.594984
 0.483601   0.578490   0.398872
 0.361662   0.618418   0.475029
 0.149460   0.944305   0.999368
 0.151245   0.795050   0.998489
 0.223323   0.151201   0.370835
 0.364592   0.151465   0.418814
 0.718899   0.851297   0.999801
 0.698954   0.999057   0.992752
 0.455430   0.330414   0.564225
 0.602459   0.305418   0.568197
 0.772604   0.633536   0.996411
 0.903229   0.705645   0.996700
 0.431314   0.807880   0.722752
 0.397788   0.665037   0.750167
 0.147831   0.466658   0.999680
 0.194645   0.563726   0.896428
 0.464022   0.993899   0.874992
 0.357841   0.997618   0.979763
 0.147883   0.497657   0.561008
 0.245014   0.494151   0.674233
 0.325168   0.264291   0.999761
 0.418650   0.147960   0.999752
 0.195344   0.731673   0.613709
 0.147872   0.737708   0.755065
 0.794454   0.243180   0.729899
 0.677778   0.150947   0.717800
 0.537268   0.314246   0.880195
 0.418359   0.363625   0.804787
 1.000000   0.208893   0.147839
 0.996747   0.155698   0.287244
 0.999853   0.999643   0.149627
 0.884914   0.904504   0.147442
 0.360783   0.747959   0.999790
 0.499748   0.799535   0.982785
 0.851444   0.594229   0.365179
 0.999179   0.601273   0.384733
 0.659948   0.647759   0.234035
 0.720034   0.754080   0.148244
 0.150298   0.997709   0.397163
 0.139916   0.884985   0.494442
 0.999320   0.747000   0.821057
 0.900087   0.857736   0.833752
 0.294331   0.384850   0.370838
 0.147846   0.362553   0.353428
 0.150165   0.573255   0.147863
 0.148482   0.722514   0.147845
 0.998921   0.380689   0.977874
 0.993882   0.519768   0.923914
 0.536848   0.999958   0.650116
 0.666556   0.999900   0.723853
 0.375925   0.999827   0.360399
 0.365758   0.911006   0.479912
 0.237954   0.267633   0.147953
 0.147885   0.148713   0.152179
 0.584622   0.535527   0.653914
 0.711260   0.530004   0.575212
 0.766106   0.998952   0.344392
 0.619410   0.999043   0.371562
 0.846295   0.150602   0.530812
 0.995353   0.147899   0.525187
 0.991765   0.497347   0.666652
 0.919868   0.384752   0.600116
 0.667200   0.419562   0.359855
 0.539226   0.347351   0.333936
 0.407666   0.502222   0.999730
 0.556502   0.511755   0.995936
 0.449720   0.788936   0.290682
 0.437360   0.745498   0.148435
 0.495363   0.507519   0.153394
 0.351297   0.468737   0.153414
 0.196193   0.331120   0.853938
 0.147788   0.193210   0.884205
 0.500329   0.998696   0.147858
 0.649514   0.999895   0.147841
 0.903189   0.991366   0.995506
 0.838438   0.383332   0.151651
 0.697339   0.710129   0.791681
 0.912456   0.769403   0.596517
 0.629454   0.772691   0.440115
 0.990463   0.870319   0.350913
 0.714034   0.193939   0.376566
 0.151476   0.749601   0.376687
 0.730777   0.466616   0.851344
 0.236808   0.993572   0.165621
 0.946087   0.643648   0.147988
 0.508624   0.161433   0.203625
 0.154045   0.235779   0.577388
 0.986178   0.346645   0.364034
 0.999720   0.227046   0.733730
 0.236599   0.997294   0.777555
 0.705999   0.204252   0.995426
 0.380623   0.148084   0.714286
 0.920701   0.990887   0.659961
 0.426473   0.554563   0.466109
 0.174243   0.870241   0.951820
 0.310904   0.147814   0.344914
 0.682907   0.919484   0.950660
 0.520111   0.265825   0.565729
 0.845102   0.656764   0.945815
 0.429046   0.723616   0.687310
 0.171357   0.553665   0.984263
 0.447972   1.000000   0.964792
 0.156453   0.491335   0.651814
 0.330857   0.173102   0.995997
 0.195173   0.781604   0.690304
 0.756614   0.166168   0.761481
 0.509364   0.355300   0.803415
 0.960976   0.147740   0.203487
 0.910424   0.990324   0.166029
 0.427121   0.765072   0.939271
 0.920081   0.575414   0.422544
 0.671738   0.676447   0.148027
 0.145723   0.975836   0.485818
 0.988236   0.837765   0.820160
 0.216011   0.422471   0.342450
 0.202091   0.648481   0.149858
 0.999798   0.469410   1.000000
 0.627550   0.992773   0.641477
 0.385794   0.995474   0.451187
 0.152170   0.239501   0.162231
 0.636176   0.579241   0.592358
 0.702371   0.999916   0.409914
 0.918805   0.147598   0.475236
 0.999487   0.429249   0.606124
 0.611747   0.386991   0.294882
 0.479091   0.536303   0.953984
 0.414129   0.726025   0.234690
 0.436971   0.437398   0.147746
 0.155930   0.256821   0.819031
 0.575346   0.946516   0.150286
 0.997330   0.999708   0.999744
 0.998388   0.148122   0.999446
