comment
   1.0000000000000000
   10.9202145373576691    0.0000000000000000    0.0000000000000000
    0.0000000000000000   10.9202145373576691    0.0000000000000000
    0.0000000000000000    0.0000000000000000   10.9202145373576691
   H   O   K
  111  56  1
Direct
 0.222078   0.787629   0.434586
 0.317456   0.692572   0.499018
 0.147905   0.732742   0.656798
 0.236744   0.757692   0.774143
 0.622546   0.477378   0.999310
 0.540498   0.352673   0.999981
 0.150083   0.609343   0.155674
 0.155784   0.758508   0.155659
 0.999816   0.296042   0.589859
 0.999993   0.147901   0.571492
 0.288516   0.449205   0.999299
 0.148903   0.502027   0.997526
 0.155662   0.507572   0.758350
 0.283852   0.528806   0.684854
 0.150720   0.265900   0.148389
 0.241257   0.384053   0.159656
 0.349802   0.996095   0.832992
 0.305209   1.000000   0.975403
 0.894399   0.222942   0.773870
 0.769957   0.213379   0.691968
 0.428236   0.989325   0.528580
 0.447925   0.996090   0.380759
 0.348393   0.856926   0.233790
 0.389476   0.972653   0.148919
 0.234268   0.963993   0.631224
 0.147910   0.998357   0.514407
 0.993715   0.309094   0.935710
 0.994174   0.159820   0.935967
 0.151011   0.870682   1.000000
 0.232149   0.746389   0.984137
 0.588024   0.348363   0.555910
 0.736198   0.334560   0.567712
 0.648533   0.917251   0.416747
 0.539298   0.816497   0.430917
 0.637012   0.147752   0.159140
 0.771033   0.154410   0.224556
 0.848929   0.997946   0.391664
 0.997367   0.995064   0.407259
 0.148005   0.480536   0.351135
 0.156079   0.541590   0.487119
 0.421615   0.628923   0.286071
 0.364339   0.625208   0.148265
 0.505640   0.720516   0.655219
 0.463349   0.825731   0.752302
 0.627592   0.225401   0.832386
 0.534510   0.147782   0.919539
 0.996930   0.842456   0.147935
 0.997235   0.991730   0.147929
 0.451846   0.643132   0.996191
 0.416903   0.610131   0.854860
 0.147574   0.163736   0.416601
 0.235447   0.263788   0.349132
 0.773409   0.148383   0.404099
 0.624367   0.155594   0.408533
 0.378427   0.216615   0.160090
 0.422820   0.147885   0.284949
 0.568825   0.360094   0.151465
 0.577616   0.509066   0.147853
 0.739798   0.455723   0.785319
 0.610996   0.513770   0.737095
 0.532647   0.980240   0.961994
 0.585784   0.903296   0.845632
 0.352814   0.228375   0.785912
 0.426786   0.350177   0.741457
 0.728029   0.900324   0.920940
 0.843880   0.991315   0.945096
 0.983790   0.777443   0.389777
 0.855294   0.776398   0.313798
 0.998436   0.460372   0.771893
 1.000000   0.608351   0.791454
 0.993387   0.496797   0.407626
 0.901067   0.505459   0.524617
 0.791866   0.156844   0.947136
 0.778140   0.305474   0.949040
 0.150523   0.986502   0.147919
 0.150038   0.873795   0.245799
 0.904436   0.492115   0.176434
 0.998989   0.379969   0.148740
 0.997657   0.510536   0.997414
 0.858809   0.565274   0.994254
 0.991927   0.777002   0.999996
 0.998989   0.926107   0.999138
 0.579275   0.577075   0.467303
 0.713564   0.632048   0.432238
 0.833169   0.811771   0.573015
 0.972041   0.772897   0.611598
 0.999209   0.147866   0.180567
 0.982807   0.150819   0.328915
 0.832365   0.763615   0.814169
 0.684530   0.744707   0.822698
 0.194015   0.320221   0.597767
 0.148003   0.179801   0.618940
 0.684030   0.397063   0.335526
 0.827252   0.355041   0.338116
 0.865904   0.667870   0.147899
 0.807454   0.568717   0.242958
 0.698010   0.997081   0.635234
 0.644196   0.993713   0.774436
 0.373087   0.212514   0.550806
 0.498020   0.147782   0.600670
 0.934537   0.997682   0.793568
 0.988066   0.998145   0.654215
 0.148362   0.305138   0.871795
 0.147921   0.157015   0.890301
 0.625484   0.985750   0.148129
 0.774762   0.984643   0.147909
 0.558655   0.718456   0.165151
 0.674248   0.798477   0.215345
 0.355866   0.361287   0.348631
 0.352613   0.445639   0.471750
 0.359134   0.239645   0.999961
 0.300676   0.780604   0.480809
 0.150262   0.758805   0.744424
 0.573172   0.420239   0.947729
 0.152928   0.683931   0.208508
 0.958900   0.226024   0.547592
 0.237410   0.525036   0.998311
 0.246032   0.493687   0.760350
 0.154379   0.357265   0.149751
 0.330114   0.945321   0.906460
 0.830379   0.166093   0.741734
 0.385737   0.995007   0.447803
 0.360593   0.885892   0.147910
 0.148481   0.964991   0.599551
 0.994228   0.234549   0.988679
 0.147911   0.779316   0.997679
 0.655868   0.310953   0.604500
 0.612616   0.853283   0.471348
 0.713204   0.197491   0.168314
 0.917583   0.993815   0.451940
 0.152377   0.559258   0.397467
 0.353566   0.596360   0.234375
 0.463882   0.801382   0.664154
 0.573133   0.152064   0.836754
 0.997067   0.917095   0.200774
 0.480960   0.645775   0.909538
 0.162786   0.209236   0.338745
 0.700536   0.153577   0.459107
 0.358981   0.149862   0.219494
 0.522170   0.437913   0.162887
 0.702044   0.517351   0.729285
 0.510077   0.935809   0.885315
 0.382649   0.311003   0.811318
 0.793101   0.950563   0.880877
 0.926540   0.725743   0.340655
 0.958226   0.539157   0.748674
 0.983739   0.528350   0.492918
 0.741163   0.226737   0.977256
 0.166698   0.963040   0.234816
 0.954685   0.425769   0.214335
 0.908827   0.488796   0.997779
 0.995449   0.851251   0.946727
 0.659540   0.605160   0.500954
 0.893096   0.742785   0.576605
 0.998618   0.201631   0.254541
 0.765278   0.717767   0.856128
 0.153207   0.263081   0.656358
 0.747358   0.345230   0.294708
 0.811919   0.594428   0.155309
 0.663352   0.943303   0.700578
 0.439110   0.152456   0.530875
 0.911976   0.998476   0.704947
 0.161427   0.237378   0.931802
 0.700206   0.985833   0.200856
 0.583420   0.788344   0.218680
 0.405630   0.414200   0.404192
 0.301333   0.164694   0.998535
 0.175712   0.984372   0.834593
