H128 O64                                
   1.00000000000000     
    12.4000000000000004    0.0000000000000000    0.0000000000000000
     0.0000000000000000   12.4000000000000004    0.0000000000000000
     0.0000000000000000    0.0000000000000000   12.4000000000000004
   H    O 
   128    64
Direct
  0.0349180453237470  0.8912402936665014  0.1581730848078270
  0.0174225102191214  0.8977177707311875  0.3822475326658389
  0.2085442090779421  1.0512917813275897  0.6041913000710507
 -0.0546294216346014  1.0563973660562944  0.8451198119955191
 -0.0001015205202948  0.0833848475063447  0.1476989127743996
 -0.1156789405267101  0.2037551659321315  0.2620220421863365
  0.1021216380654478  0.1918542279601218  0.5104002708010313
  0.1377593603361184  0.4124351873961113  0.7868822073337847
  0.0779701517924272  0.2684236052761999 -0.0724896998842363
  0.1077191878098486  0.5388344148055421  0.3285992062441054
 -0.2065508878535066  0.2967937764707979  0.4483734937043234
 -0.1444191442507613  0.3055812068017915  0.6595800591834525
 -0.0535309298563766  0.4331792166919396 -0.0768731558263223
  0.0838957312774827  0.6374006345611199  0.0582598090364112
  0.0437143904143656  0.8216540706337675  0.5486272352002949
  0.0329474056127160  0.7878827947275165  0.7186846768602249
  0.2954019829725516  1.0083684370676018  0.0683671570469041
  0.1672991202188701  1.0715502732740059  0.2055376720607513
  0.3032980628121743  0.9495176531500898  0.4208010756743012
  0.4150621688227713  0.9863189017238118  0.5927279387204584
  0.2788875658815312  0.2814423321401573 -0.0516909178787025
  0.2080397356501330  0.3964183897097809  0.1776937696338849
  0.2712821729547592  0.3915981975500282  0.4360296150112979
  0.3079631153420966  0.1482174543712150  0.6754465929312223
  0.3284406933871720  0.4416196689188258  0.1015465749236578
  0.4233402297616775  0.5361487044686033  0.2196207568580234
  0.2165505695923612  0.6287236012538253  0.6299065484914339
  0.0722642953897168  0.6195510397943080  0.8049808153885182
  0.2443334581172859  0.5549779019652535  0.0404592234952836
  0.2920337047131782  0.6745755029648598  0.2095385036328744
  0.2289977314594439  0.7810961143844475  0.3248171070942399
  0.3561509422379535  0.7341768204843794  0.8211233686651325
  0.4706493610198523  0.8873019713322748  0.0801789816302955
  0.5513162543117414  1.0980054560084243  0.3819897623571234
  0.5800785165224809  0.8153778123760498  0.5472629391797967
  0.6305507625932932  0.9763430244530620  0.8223407356415577
  0.5374517119602232  0.1260904817366409  0.1732358469860484
  0.5611546739734937  0.1763237976133031 -0.1521288148371850
  0.4273615587636036  0.3400504114877065  0.5409415276471670
  0.5467837162774579  0.3166247457230917  0.6936982151178888
  0.5313642644494753  0.4771132352366319 -0.0563676225892594
  0.5698866065905053  0.5568865784708503  0.2776713879874521
  0.4717093990115689  0.5142120455966968  0.4388745039764667
  0.5706945855072645  0.6046825298216091  0.7935147103404034
  0.5436367913403501  0.6548642445465136  0.1168880961855405
  0.5148225388270723  0.8079678377691273  0.1979559202897260
  0.5028242892593220  0.7876584252738987  0.3978881768469933
  0.3679061440772217  0.8688911904482548  0.8971917696769910
  0.8890041548360379  0.9194460649384119  0.0955751805870840
  0.7448481049052643  0.9640276188800430  0.3157179373591019
  0.7770854528017811  1.0265834826278788  0.4790167529577531
  0.7608145175012554  1.1137263765299099  0.9265416541745315
  0.8185271737416141  0.1662944739349305  0.0922139186350457
  0.7854472344842870  0.3496040756646389  0.2408079785071870
  0.6372686946283115  0.3038728698656351  0.4478525022804184
  0.6403219941794784  0.1197817620553735  0.6676643234840959
  0.7297278267640861  0.3986155191929122 -0.0778100007770713
  0.7973104271441214  0.5905129983638410  0.1151526513815011
  0.7349410258789302  0.5523355037153583  0.5799961409913635
  0.7969177342262259  0.5315863871038128  0.7415928822638209
  0.7406142021772342  0.7185453190039987  0.0292808441305040
  0.9535218802189362  0.7305615810505686  0.3314900315589497
  0.7558464009165684  0.7652987258865004  0.5765144954171663
  0.8524133593736111  0.8107305887903563  0.7519500725565327
  0.1054233894911800 -0.0502804319706922  0.0688230479013591
  0.0450337971186152  0.0055434430555275  0.3244158420895231
  0.1060779103338055  0.0663414500609795  0.6780276428365507
  0.0400722845649827 -0.0144329357643015  0.8828321222698979
 -0.0108811978187224  0.2000222898639699  0.0920535293916151
 -0.0528770271494108  0.2567729441418871  0.3630019531164955
  0.0957499623739738  0.3112605527239070  0.4879431577875249
  0.1660016041066182  0.3315772435429508  0.6983719650622142
  0.0672189592399648  0.3356894329466305  0.0288154642229273
  0.0351847680673596  0.5908579004087544  0.2359486764357452
 -0.2434836703956578  0.3875573055333379  0.5277037383910528
 -0.0447831285682390  0.3660156323631400  0.7066349741214469
 -0.0990722940760262  0.5465584064237498 -0.0713886447353070
  0.0230035758157680  0.7401512415009259  0.1089653349295978
  0.1207639082993887  0.7851866019598809  0.4527941704202849
  0.0018263548059206  0.9071294586966175  0.7090028672722460
  0.2159516974530842  0.0950825938291670  0.0147111305188132
  0.1559784907810629  0.1791087871156019  0.2708862452390906
  0.2518176903025964  0.0583631468492049  0.3824288683941259
  0.4129651566329833 -0.0233374185938225  0.7199744594686218
  0.2513837812916810  0.2095109745372889 -0.1549569942423114
  0.0834595410962403  0.4036319574733430  0.2006733432462760
  0.2273583038831549  0.5025759545125362  0.4706058768321458
  0.3429585781079079  0.2644362379115337  0.7011989182379997
  0.4055883661303726  0.3840313176071800  0.0175730133039466
  0.3093515534477285  0.5003115306081648  0.2957231075481050
  0.2084075464476036  0.5027294436735338  0.6509729725446254
  0.1780090182665588  0.6833366734744269  0.7955395746854345
  0.2488758060332848  0.6763697272397777  0.0670279316019529
  0.3512852326054752  0.7830339480007596  0.2235778606039443
  0.3080588869624941  0.7624122414666661  0.4267550365146974
  0.3013403292464795  0.6287106827708087  0.8783834996445906
  0.4885326228399922  0.0029201691453580  0.0573401886258203
  0.4345473844424011  0.0463791390411789  0.3819423783570903
  0.6692462326256082 -0.0925940176100112  0.5509934702459960
  0.6081065828316151 -0.1179682167161549  0.7345252584545782
  0.6299428399109600  0.1631081424465136  0.0933409978216708
  0.5081169929849523  0.1778193128629934 -0.0321319509445186
  0.4468973064598064  0.3157148821701806  0.4186707967970666
  0.5016413064741490  0.4293352729245210  0.7164209281140229
  0.5459182247785588  0.3487056780431553 -0.0624031953973485
  0.6029984145303452  0.4839066471223631  0.1755775675537994
  0.5846330786187126  0.5579361373988895  0.4614914580395809
  0.4405169010361772  0.5943802821955241  0.8064205804331996
  0.5954955801349691  0.7540063338508561  0.0507820763752122
  0.5041696144307248  0.9210321190520979  0.2794601859350286
  0.4885259489954755  0.6918818380026437  0.4739992110501931
  0.4613669172292175  0.8708019832780181  0.8228129759914981
  0.7875605024093926 -0.0301266844293826  0.1617907246992940
  0.8741599898148041 -0.0276355335418051  0.3220507868366115
  0.7896268570237005  0.0062100587999994  0.6012653190730277
  0.7707151225791617 -0.0041025138752782  0.9487557320504906
  0.7890164490224857  0.2575643805923802 -0.0023227621162584
  0.7191102383356018  0.2952704497718764  0.1482460783878654
  0.6417682509222076  0.3281478457033034  0.3202582328169874
  0.6999373207091532  0.2136207364910064  0.6123165310891072
  0.8186798716529867  0.3548638561679023 -0.1628265203701184
  0.8149421313830530  0.6787191763213928  0.2116788114215793
  0.7751561163537903  0.5367959803630253  0.4637189218478982
  0.7768422815130289  0.6542070678723624  0.7261097018613222
  0.7530166401440533  0.8378757020414935  0.0347053104286471
  0.8382457943327787  0.7298131513669008  0.3757505030801153
  0.8780984477164705  0.7510915834217146  0.5445605268519033
  0.7734837069011337  0.7827095988807364  0.8647582872322678
  0.0320239376327235 -0.0811010320986162  0.0838275876323081
 -0.0061415212888303 -0.0543383877626894  0.3189641888727456
  0.1300607133768770  0.0573182595077942  0.6036164118702055
  0.0179615432301301  0.0330891155709598  0.8250091239950249
 -0.0511611077639932  0.1416851460875119  0.1290248096763084
 -0.1205451166746081  0.2578824058575698  0.3199890448526667
  0.0484134271878031  0.2488395204584249  0.4943971547285755
  0.1121567658714226  0.3886583064643362  0.7141418914223918
  0.0203268415957759  0.3044346413388302 -0.0290309924208119
  0.0413344655325663  0.5294600269660039  0.2869083016897629
 -0.2275718951465119  0.3075755356991602  0.5250200193680897
 -0.1239309580175336  0.3622570461801173  0.7117852920665121
 -0.0319853359508149  0.5076729362729807 -0.0854143511331495
  0.0305417181691725  0.6621074213101301  0.1112789375079867
  0.0451228963840669  0.8057550373105240  0.4697928385478687
 -0.0097268869410001  0.8379729680496458  0.6736862451742258
  0.2211808879165588  0.0358507624334367  0.0689299174719930
  0.1546355540133735  0.1000704443709264  0.2789436588802752
  0.3113130021530549  0.0281817568724691  0.4282933128838156
  0.4102393169438875  0.0282939226600449  0.6594060095869029
  0.2444937784073138  0.2150632694646422 -0.0760936708440155
  0.1398490269171936  0.3591283317623276  0.1641147537655576
  0.2230387529089778  0.4510200145497573  0.4110277744188571
  0.2780582377281471  0.2178431852435790  0.7024596845670299
  0.3277396329539736  0.3939014663824233  0.0380755733910355
  0.3435991286089655  0.5311872048778102  0.2295107213529290
  0.2477292373455167  0.5589019589590638  0.6107726289667271
  0.0992383120194653  0.6894396198241716  0.7794924307970986
  0.2262119545509914  0.6244578070257182  0.0099912801404578
  0.2799570703804650  0.7531025836551333  0.2069654290276724
  0.2360720777617808  0.7874640372936949  0.4049153219891591
  0.3394962242134139  0.6550790799673571  0.8131601529377906
  0.4284156381287617 -0.0481128802714209  0.0613627229954415
  0.5038625064712959  0.0515550233880046  0.3401074345718679
  0.6432458020758914 -0.1582564118772830  0.5888213754909407
  0.5784048549400888 -0.0806079878911551  0.7991384574030446
  0.5567793829411416  0.1315265088028842  0.0965492673264147
  0.5048676711437226  0.2041569610698467 -0.1067633255636935
  0.3898864806192899  0.3280886014683533  0.4726943371821768
  0.4843738806231902  0.3633465303996911  0.6735181754411397
  0.5475131719512414  0.4110503950156453 -0.0128943181629965
  0.5604810120735916  0.5451823483366836  0.1997851651789682
  0.5133553021807832  0.5799250421850156  0.4297841234771133
  0.5110804886447774  0.5542283911004114  0.8116469321869483
  0.5266044247009627  0.7252004681319169  0.0843698433672532
  0.5018155260883234  0.8405751117201931  0.2704520736257895
  0.4821750138308317  0.7721121435673759  0.4745474172898284
  0.3798172576326720  0.8545657695108785  0.8197175635267921
  0.8131080273842773 -0.0562430571326575  0.0917073664545953
  0.8057108366092078  0.0140310942291428  0.3212038517347408
  0.7334796783220878  0.0122112048016126  0.5453503895417909
  0.7556041352700991  0.0447436233051362  0.8878323983687991
  0.7599063148216991  0.1968378739732261  0.0478903820143157
  0.7184666272272620  0.3560417760752578  0.1988360311975387
  0.5931352211903531  0.3092923547559481  0.3814250690847528
  0.6718259209974352  0.1893324735594008  0.6825898557131245
  0.8002292848556185  0.3624235129005937 -0.0844868654721906
  0.7679115380883098  0.6530734384433897  0.1485007096223195
  0.7122295153853240  0.5191783980166559  0.5077626776280115
  0.7422888756556645  0.5816040358786148  0.7105991533839697
  0.7133638141182942  0.7833452586046195 -0.0110963031035907
  0.8789756787454706  0.7323415338953108  0.3067827419681179
  0.8050966934715547  0.7246211640052360  0.5275624328489603
  0.8178456457342796  0.7618315710772614  0.8013553874220145
 
 -0.14344137E-01  0.11134153E-01  0.15293082E-01
  0.73055703E-02  0.43716631E-02  0.70477984E-02
 -0.11592156E-03 -0.13500575E-01  0.10608493E-01
 -0.66299868E-02 -0.72724812E-03  0.20352673E-02
 -0.21601113E-01 -0.21262493E-02  0.16755283E-01
 -0.25613457E-01  0.11541314E-02  0.14542478E-03
  0.76298899E-02 -0.40274889E-02 -0.29146547E-01
  0.18130903E-01 -0.25644908E-01  0.13360340E-01
  0.13443230E-01  0.23850399E-01 -0.31475228E-02
  0.13137674E-01 -0.27385850E-01 -0.20833348E-01
  0.13827079E-02  0.11391866E-02 -0.28300273E-02
  0.30643423E-01 -0.46434640E-02  0.33857294E-02
 -0.15682414E-01  0.26865445E-02 -0.15676614E-01
 -0.55367662E-02 -0.47398872E-02  0.78177886E-02
  0.61440826E-02  0.18638570E-01 -0.10477847E-01
  0.45822209E-02 -0.36971305E-02  0.62668696E-02
 -0.46969292E-02 -0.14312546E-02 -0.10763897E-01
  0.10257696E-01  0.13904947E-01 -0.55120607E-02
 -0.99706443E-02  0.50721760E-02  0.12438663E-01
 -0.16406196E-01 -0.73975804E-02  0.17999766E-01
 -0.12322274E-01 -0.20760136E-01  0.32795123E-01
 -0.12419250E-01  0.25617453E-01 -0.27875460E-02
  0.24486360E-01  0.75254275E-02 -0.16620652E-02
  0.12333083E-01  0.41368134E-01 -0.20116026E-01
  0.14194653E-02  0.69793919E-03 -0.13784534E-01
 -0.13668916E-01 -0.43493486E-01  0.28743925E-01
  0.13868660E-01 -0.10941322E-01  0.52921504E-01
  0.56400946E-02 -0.14800444E-02 -0.12638868E-01
 -0.12066041E-01 -0.93216237E-02 -0.30217007E-02
  0.90764001E-02  0.64396466E-02 -0.15328462E-01
  0.18136108E-02 -0.26300115E-02  0.51738586E-02
  0.26612415E-01  0.31390301E-02  0.21202858E-01
 -0.90679939E-02 -0.20412498E-02  0.15794416E-01
  0.16326319E-01 -0.23443469E-01 -0.13484307E-02
  0.35180549E-02 -0.21308620E-01  0.12201544E-02
  0.11820726E-01 -0.25013189E-01  0.24137046E-01
  0.51527672E-02 -0.44509399E-02  0.10021932E-05
  0.56299526E-03 -0.51902184E-02  0.42767382E-02
 -0.10617109E-01  0.11429255E-01  0.13905052E-01
 -0.14530521E-02 -0.86907165E-02 -0.25847323E-01
  0.75223601E-03 -0.22311995E-01 -0.47129963E-02
  0.39655498E-02 -0.16202297E-01  0.68834420E-02
 -0.13680600E-01  0.12948028E-01 -0.92295781E-02
 -0.81088683E-02  0.23084141E-02  0.30343300E-02
 -0.47122787E-02 -0.66246733E-02  0.15299552E-02
  0.66781384E-02  0.44915293E-04 -0.61395635E-02
 -0.11766773E-01  0.12344108E-01 -0.15948927E-01
  0.96502273E-02  0.10005300E-01 -0.10900796E-01
  0.31860064E-02  0.18674327E-01 -0.88940235E-02
 -0.10761147E-01  0.17754206E-01 -0.11227436E-01
  0.38670605E-02  0.23918405E-01 -0.17878422E-02
  0.59108633E-02 -0.19609611E-02  0.10910210E-01
  0.18247551E-01  0.29732234E-02  0.25057857E-02
 -0.15460671E-01  0.20279695E-01 -0.12246383E-01
  0.12476664E-01  0.18772804E-01 -0.40050991E-02
  0.10870658E-02  0.63816427E-02 -0.36733986E-01
 -0.10194938E-01  0.51292015E-02 -0.17583887E-01
  0.76309471E-02  0.16421542E-02 -0.36857167E-02
 -0.10927198E-01  0.96174151E-02 -0.16397208E-01
 -0.24272303E-01 -0.90405574E-02 -0.79689144E-02
 -0.85515814E-02 -0.23796910E-03 -0.23468966E-01
  0.67960869E-02 -0.38820631E-01 -0.27831715E-01
 -0.26352348E-01  0.12962961E-01 -0.18151177E-01
 -0.87048060E-02  0.12658505E-03  0.25932712E-02
  0.73134028E-02 -0.18750538E-01  0.17881309E-02
  0.63554701E-03 -0.23106359E-02 -0.29582693E-01
  0.14980757E-01 -0.24816473E-01  0.14430386E-01
  0.10046359E-01  0.12406600E-01  0.62362707E-03
  0.25511216E-01 -0.89843198E-02  0.15960571E-01
 -0.50671902E-02  0.10998650E-02  0.45296839E-02
 -0.49308376E-02 -0.35697419E-02 -0.29707634E-02
 -0.92641776E-02 -0.18984502E-01 -0.96851103E-02
  0.63776984E-02 -0.25279310E-02 -0.31059813E-02
 -0.46995604E-02 -0.73496520E-02 -0.95381284E-02
 -0.97793453E-02 -0.12812025E-01  0.20646258E-01
  0.61793990E-03  0.39990062E-02  0.11372455E-02
  0.12140652E-01  0.31993297E-01 -0.21292925E-01
  0.35876736E-01  0.10076497E-01 -0.10516822E-01
 -0.12915948E-01 -0.11355654E-01 -0.10338127E-01
  0.11655800E-01  0.76191642E-03  0.52081975E-02
 -0.29637480E-02 -0.11769743E-01 -0.17276779E-01
  0.60551760E-02  0.13780161E-02  0.10465696E-01
 -0.43231520E-02  0.15989736E-01  0.25337427E-01
  0.26070605E-01  0.36185854E-03 -0.36142783E-01
 -0.17403822E-02  0.69162642E-02 -0.10542278E-01
  0.11162999E-01  0.25658799E-01 -0.83972480E-02
  0.12250357E-02  0.61641053E-02 -0.13025463E-01
 -0.16605720E-02  0.12241540E-01 -0.70605262E-02
  0.17679117E-02 -0.31564393E-01  0.67757537E-02
 -0.43071735E-02 -0.19603306E-01 -0.44270010E-02
  0.32273410E-01  0.24007984E-02  0.22249403E-01
 -0.96807004E-02 -0.22913738E-01 -0.27871439E-02
 -0.54740334E-02  0.92992172E-02 -0.17556912E-01
  0.67027131E-02  0.10340073E-01 -0.20385560E-01
 -0.69729910E-02 -0.14553614E-02 -0.80401677E-02
 -0.18777835E-01  0.69852471E-03 -0.40276136E-02
 -0.42711514E-02  0.21101373E-01  0.37338076E-03
 -0.85775285E-02  0.24366732E-01 -0.85713423E-02
  0.11321022E-01  0.74177973E-02  0.22657375E-01
  0.14776916E-02 -0.37764319E-02  0.24599513E-01
 -0.36153431E-02 -0.12901848E-01 -0.12725595E-01
 -0.27044000E-01  0.55299301E-02  0.62594861E-03
 -0.72395192E-02 -0.75054471E-02  0.43975905E-02
 -0.30842359E-01  0.18273100E-02  0.11370919E-01
  0.26866087E-01 -0.50113299E-02  0.23224243E-02
  0.14773921E-01 -0.81967025E-02  0.77827988E-02
  0.55346489E-02  0.27722176E-02 -0.20012817E-01
  0.71621669E-02  0.16433011E-01  0.40585374E-02
  0.84362868E-02 -0.33058402E-02  0.57260165E-03
 -0.74918733E-02  0.48921571E-02  0.43396557E-01
  0.19358348E-01  0.47086437E-02 -0.18838598E-01
 -0.36719458E-03  0.83722383E-02 -0.13818178E-01
  0.30304017E-02 -0.11820676E-01  0.15448603E-01
 -0.25582244E-02 -0.10443789E-01  0.23625317E-01
 -0.14772700E-01  0.13307012E-01  0.91747066E-02
  0.52828799E-02  0.16625820E-02 -0.10565241E-01
  0.15850218E-01 -0.18168167E-01 -0.12154888E-02
  0.21021889E-01  0.62824854E-02 -0.18249928E-01
 -0.15371143E-01 -0.31855747E-01  0.10223748E-01
 -0.14947204E-01  0.12604154E-01 -0.30912510E-02
  0.14183195E-01 -0.57187433E-02 -0.11176306E-02
 -0.92894736E-02 -0.71662969E-02 -0.16194690E-01
 -0.10947949E-01 -0.11118424E-01 -0.13456282E-01
 -0.14739755E-01  0.70203430E-02  0.27676915E-01
  0.15247765E-01  0.95706080E-02 -0.34376160E-01
 -0.11275942E-01  0.63012150E-02 -0.11460107E-01
 -0.11120490E-01  0.10827654E-01 -0.11492960E-01
  0.11636052E-01 -0.66383445E-02  0.59431601E-02
  0.37915729E-03 -0.10402911E-01 -0.50502499E-02
 -0.53235025E-02 -0.12367945E-02 -0.11322019E-02
  0.29598238E-02 -0.42333507E-02  0.57500729E-02
 -0.76349417E-02 -0.88959513E-03 -0.46234437E-03
 -0.44963605E-03  0.35612663E-03  0.15996512E-02
  0.37215695E-02  0.27583801E-02 -0.94294747E-03
  0.42281827E-03 -0.16811707E-02  0.50129963E-02
  0.26397562E-02 -0.14679268E-02  0.65701876E-02
  0.40123712E-02 -0.11713295E-03  0.66473757E-02
  0.55957405E-03  0.45935559E-05 -0.79520559E-02
 -0.11655812E-02 -0.95700965E-02 -0.12538522E-02
 -0.34656047E-02 -0.19360903E-02 -0.79773622E-03
 -0.34423527E-02  0.72634224E-02  0.40786601E-02
  0.15796365E-02  0.72381229E-02  0.30718544E-02
 -0.97475310E-02 -0.54817689E-02 -0.52683152E-02
  0.12240051E-02 -0.65547172E-02  0.56532803E-03
  0.74941989E-03 -0.23997804E-02 -0.53688991E-02
  0.25659013E-03  0.42004298E-02  0.48753964E-02
  0.26069677E-02  0.25550258E-02  0.25403716E-02
 -0.40378348E-02  0.97241838E-02  0.13337465E-02
 -0.33034339E-02 -0.65819548E-02  0.12007248E-02
  0.19848657E-02  0.16548696E-02  0.24290688E-02
  0.70204463E-02 -0.39701431E-02 -0.55731030E-03
  0.77852712E-02  0.85539201E-02 -0.33522972E-03
 -0.27534675E-02 -0.73772817E-02 -0.54058735E-02
  0.20580864E-02 -0.24649989E-02  0.40772203E-02
 -0.56417480E-03 -0.29181243E-02 -0.48340293E-02
  0.50518283E-02 -0.21487261E-03  0.56405974E-03
  0.89541497E-04  0.21652567E-02 -0.28568292E-02
  0.54936513E-03  0.16647220E-02 -0.33957439E-02
  0.25347347E-03  0.43951855E-02 -0.25666346E-02
  0.19308729E-02 -0.15577877E-02  0.26069370E-02
 -0.95417506E-03  0.33580271E-02  0.37670870E-02
  0.43532115E-02 -0.23372902E-02 -0.54245518E-03
  0.40317274E-02 -0.13248528E-02  0.59453595E-02
 -0.69340766E-02 -0.27237361E-02  0.89614470E-02
 -0.10226699E-02 -0.88040882E-03  0.72803318E-02
 -0.40903961E-02 -0.84568200E-02 -0.42565614E-02
  0.29452046E-02 -0.57936618E-02  0.80175132E-02
 -0.54885061E-02 -0.42123438E-02 -0.25083635E-02
 -0.60078482E-03 -0.10621976E-01  0.53525078E-02
  0.57750730E-02 -0.28147829E-02 -0.30568583E-02
  0.15088457E-02  0.66807329E-03  0.27932576E-02
 -0.32774808E-02 -0.10763903E-02  0.10189625E-01
  0.63585699E-02  0.17428626E-02  0.54819971E-02
  0.12445807E-02  0.17023727E-01 -0.54823696E-03
  0.42792599E-03  0.13175427E-02 -0.68724719E-02
 -0.37259507E-02  0.78980085E-02  0.20631834E-02
  0.14947459E-02 -0.16068670E-02 -0.12530434E-02
  0.31502937E-02 -0.11776492E-01  0.78588046E-02
  0.42162444E-02 -0.55472567E-02 -0.93206035E-02
  0.42373051E-02  0.13287525E-02 -0.59068637E-02
  0.17656902E-02  0.45233350E-02 -0.18296081E-02
 -0.23077086E-02  0.36309992E-02 -0.59759522E-02
 -0.29098403E-02 -0.24776108E-03  0.19848649E-02
  0.73113279E-03  0.76340054E-02 -0.18846318E-02
 -0.12088736E-01  0.18566665E-02 -0.49766488E-02
  0.48158130E-02  0.42593200E-02 -0.88470012E-02
 -0.16549882E-02  0.18628918E-02  0.24243515E-02
  0.16570647E-02  0.74704871E-02  0.47159344E-02
 -0.55007540E-02  0.31636162E-02 -0.45270751E-02
  0.67215093E-02  0.61319621E-02 -0.22758058E-02
 -0.67878358E-02  0.58844757E-02 -0.19578424E-02
 -0.86882937E-02  0.74101597E-03 -0.31935361E-02
 
           1
   1.00000000000000     
  0.18720823E+02 -0.50647896E-03 -0.46497278E-03  0.18721308E+02
  0.33761260E-01  0.89213821E+00  0.15940640E+00
  0.18011669E-01  0.89807032E+00  0.38281590E+00
  0.20853486E+00  0.50203025E-01  0.60504682E+00
  0.94483590E+00  0.56338717E-01  0.84528395E+00
  0.99815645E+00  0.83213376E-01  0.14905015E+00
  0.88225546E+00  0.20384824E+00  0.26203377E+00
  0.10273695E+00  0.19152943E+00  0.50804974E+00
  0.13922153E+00  0.41036705E+00  0.78795965E+00
  0.79054283E-01  0.27034702E+00  0.92725647E+00
  0.10877868E+00  0.53662588E+00  0.32691910E+00
  0.79356062E+00  0.29688565E+00  0.44814527E+00
  0.85805210E+00  0.30520673E+00  0.65985310E+00
  0.94520436E+00  0.43339587E+00  0.92186260E+00
  0.83449218E-01  0.63701839E+00  0.58890276E-01
  0.44209881E-01  0.82315718E+00  0.54778225E+00
  0.33316940E-01  0.78758464E+00  0.71919007E+00
  0.29502320E+00  0.82530133E-02  0.67499101E-01
  0.16812635E+00  0.72671640E-01  0.20509315E+00
  0.30249398E+00  0.94992670E+00  0.42180419E+00
  0.41373909E+00  0.98572232E+00  0.59417953E+00
  0.27789383E+00  0.27976813E+00  0.95095385E+00
  0.20703818E+00  0.39848431E+00  0.17746897E+00
  0.27325688E+00  0.39220509E+00  0.43589558E+00
  0.30895772E+00  0.15155359E+00  0.67382433E+00
  0.32855517E+00  0.44167595E+00  0.10043492E+00
  0.42223790E+00  0.53264117E+00  0.22193882E+00
  0.21766901E+00  0.62784124E+00  0.63417441E+00
  0.72719142E-01  0.61943168E+00  0.80396155E+00
  0.24336039E+00  0.55422616E+00  0.40215538E-01
  0.29276567E+00  0.67509483E+00  0.20830234E+00
  0.22914399E+00  0.78088402E+00  0.32523435E+00
  0.35829710E+00  0.73442997E+00  0.82283328E+00
  0.46991807E+00  0.88713735E+00  0.81452725E-01
  0.55263289E+00  0.96114854E-01  0.38188102E+00
  0.58036223E+00  0.81365938E+00  0.54736134E+00
  0.63150405E+00  0.97432583E+00  0.82428727E+00
  0.53786726E+00  0.12573153E+00  0.17323593E+00
  0.56120008E+00  0.17590523E+00  0.84821608E+00
  0.42650534E+00  0.34097213E+00  0.54206290E+00
  0.54666653E+00  0.31592388E+00  0.69161375E+00
  0.53142493E+00  0.47531388E+00  0.94325230E+00
  0.57020641E+00  0.55557994E+00  0.27822650E+00
  0.47060612E+00  0.51525624E+00  0.43813018E+00
  0.57004064E+00  0.60486869E+00  0.79375941E+00
  0.54325677E+00  0.65433000E+00  0.11701148E+00
  0.51536110E+00  0.80797146E+00  0.19746079E+00
  0.50187536E+00  0.78865392E+00  0.39660197E+00
  0.36868439E+00  0.86969807E+00  0.89631267E+00
  0.88926109E+00  0.92095206E+00  0.94857921E-01
  0.74398027E+00  0.96545941E+00  0.31481250E+00
  0.77739731E+00  0.28512386E-01  0.47887257E+00
  0.76129120E+00  0.11356823E+00  0.92742151E+00
  0.81999875E+00  0.16653425E+00  0.92415998E-01
  0.78420041E+00  0.35123953E+00  0.23982037E+00
  0.63827488E+00  0.30538681E+00  0.44752951E+00
  0.64040966E+00  0.12029641E+00  0.66470191E+00
  0.72890565E+00  0.39902916E+00  0.92077194E+00
  0.79792583E+00  0.59064543E+00  0.11485542E+00
  0.73405980E+00  0.55311110E+00  0.57867379E+00
  0.79496029E+00  0.53085731E+00  0.74095023E+00
  0.73992456E+00  0.71852613E+00  0.27388186E-01
  0.95406995E+00  0.72743089E+00  0.32924554E+00
  0.75372121E+00  0.76634413E+00  0.57505069E+00
  0.85171136E+00  0.81074080E+00  0.75215921E+00
  0.10601318E+00  0.94820743E+00  0.68967252E-01
  0.45085051E-01  0.53571014E-02  0.32203014E+00
  0.10728604E+00  0.64340122E-01  0.67919138E+00
  0.40882475E-01  0.98656760E+00  0.88288241E+00
  0.99117616E+00  0.19929775E+00  0.93340672E-01
  0.94671433E+00  0.25686164E+00  0.36336725E+00
  0.95352314E-01  0.31097267E+00  0.48770358E+00
  0.16525449E+00  0.33004624E+00  0.69759091E+00
  0.67733290E-01  0.33548557E+00  0.28564982E-01
  0.34805771E-01  0.59026519E+00  0.23517947E+00
  0.75572767E+00  0.38652408E+00  0.52936876E+00
  0.95526671E+00  0.36633813E+00  0.70672669E+00
  0.90190679E+00  0.54913851E+00  0.92689418E+00
  0.25896861E-01  0.74096386E+00  0.10811720E+00
  0.11972230E+00  0.78427082E+00  0.45196045E+00
  0.27663387E-02  0.90719090E+00  0.70942288E+00
  0.21571269E+00  0.94133421E-01  0.13317842E-01
  0.15646681E+00  0.17921992E+00  0.27173025E+00
  0.25146905E+00  0.59652642E-01  0.38447221E+00
  0.41506762E+00  0.97669176E+00  0.71705972E+00
  0.25124343E+00  0.21006874E+00  0.84419282E+00
  0.84359783E-01  0.40570122E+00  0.19999615E+00
  0.22745710E+00  0.50307306E+00  0.46955544E+00
  0.34282466E+00  0.26542346E+00  0.70062952E+00
  0.40573094E+00  0.38148580E+00  0.18119445E-01
  0.30900420E+00  0.49873062E+00  0.29536609E+00
  0.21101024E+00  0.50292306E+00  0.65276728E+00
  0.17722832E+00  0.68148879E+00  0.79531481E+00
  0.24843435E+00  0.67711966E+00  0.65612052E-01
  0.35182577E+00  0.78386782E+00  0.22193386E+00
  0.30749655E+00  0.76229487E+00  0.42610664E+00
  0.29982599E+00  0.62876702E+00  0.87805869E+00
  0.48818818E+00  0.46218928E-02  0.57370300E-01
  0.43385565E+00  0.48344198E-01  0.38125114E+00
  0.67015922E+00  0.90800419E+00  0.55282068E+00
  0.60822575E+00  0.88172723E+00  0.73650909E+00
  0.62965128E+00  0.16206767E+00  0.92314740E-01
  0.50593603E+00  0.17826527E+00  0.96791853E+00
  0.44631347E+00  0.31510960E+00  0.41902544E+00
  0.49915402E+00  0.42948264E+00  0.71733794E+00
  0.54808484E+00  0.34830154E+00  0.93778410E+00
  0.60418986E+00  0.48324562E+00  0.17620521E+00
  0.58507942E+00  0.55815970E+00  0.45987752E+00
  0.44109450E+00  0.59570553E+00  0.80674788E+00
  0.59617593E+00  0.75373973E+00  0.50828254E-01
  0.50356543E+00  0.92142665E+00  0.28295991E+00
  0.49008711E+00  0.69226157E+00  0.47247997E+00
  0.46133730E+00  0.87147716E+00  0.82169861E+00
  0.78780489E+00  0.96892004E+00  0.16303658E+00
  0.87395368E+00  0.97152223E+00  0.32395605E+00
  0.78843551E+00  0.72832050E-02  0.60200521E+00
  0.77114116E+00  0.99603157E+00  0.94790370E+00
  0.79029469E+00  0.25609921E+00  0.99757921E+00
  0.72080555E+00  0.29577710E+00  0.14677431E+00
  0.64052864E+00  0.32557883E+00  0.32108273E+00
  0.69873190E+00  0.21463720E+00  0.61206724E+00
  0.81982368E+00  0.35440267E+00  0.83708335E+00
  0.81419298E+00  0.67814125E+00  0.21037279E+00
  0.77427322E+00  0.53589933E+00  0.46263374E+00
  0.77565359E+00  0.65477322E+00  0.72834171E+00
  0.75424630E+00  0.83864753E+00  0.31933039E-01
  0.83733644E+00  0.73032131E+00  0.37482630E+00
  0.87720163E+00  0.75196478E+00  0.54363368E+00
  0.77442210E+00  0.78217425E+00  0.86523757E+00
  0.32054515E-01  0.91806002E+00  0.83420309E-01
  0.99342916E+00  0.94556187E+00  0.31887288E+00
  0.13029941E+00  0.56976860E-01  0.60408013E+00
  0.17345822E-01  0.33017374E-01  0.82497184E+00
  0.94880263E+00  0.14171387E+00  0.12915381E+00
  0.87975501E+00  0.25810486E+00  0.31991300E+00
  0.48447525E-01  0.24870394E+00  0.49480143E+00
  0.11236965E+00  0.38853993E+00  0.71467175E+00
  0.20650420E-01  0.30442520E+00  0.97150509E+00
  0.41379592E-01  0.52946040E+00  0.28626701E+00
  0.77233411E+00  0.30680375E+00  0.52491890E+00
  0.87578956E+00  0.36210091E+00  0.71172096E+00
  0.96773705E+00  0.50825870E+00  0.91491457E+00
  0.30669108E-01  0.66269114E+00  0.11152667E+00
  0.44336805E-01  0.80531296E+00  0.46936797E+00
  0.99037182E+00  0.83744436E+00  0.67373184E+00
  0.22124133E+00  0.35657232E-01  0.68496942E-01
  0.15465625E+00  0.10040919E+00  0.27933684E+00
  0.31152324E+00  0.28387807E-01  0.42849818E+00
  0.40991369E+00  0.29078131E-01  0.65951357E+00
  0.24422737E+00  0.21453247E+00  0.92400316E+00
  0.14000910E+00  0.35926179E+00  0.16431065E+00
  0.22360492E+00  0.45069984E+00  0.41098283E+00
  0.27868608E+00  0.21853302E+00  0.70243265E+00
  0.32751758E+00  0.39330652E+00  0.37639616E-01
  0.34376510E+00  0.53098841E+00  0.22983953E+00
  0.24768374E+00  0.55866663E+00  0.61038279E+00
  0.99645718E-01  0.68942229E+00  0.77953792E+00
  0.22621918E+00  0.62463242E+00  0.97608907E-02
  0.28000137E+00  0.75323684E+00  0.20669158E+00
  0.23609252E+00  0.78781849E+00  0.40470834E+00
  0.33965194E+00  0.65495345E+00  0.81337039E+00
  0.42833869E+00  0.95215793E+00  0.61666520E-01
  0.50421357E+00  0.51366532E-01  0.34006369E+00
  0.64357094E+00  0.84163675E+00  0.58930084E+00
  0.57784566E+00  0.91917236E+00  0.79986115E+00
  0.55669691E+00  0.13145551E+00  0.97136391E-01
  0.50453780E+00  0.20347496E+00  0.89289340E+00
  0.39012400E+00  0.32762137E+00  0.47334091E+00
  0.48393126E+00  0.36300683E+00  0.67331589E+00
  0.54746472E+00  0.41019378E+00  0.98753734E+00
  0.56094674E+00  0.54495535E+00  0.19953864E+00
  0.51347698E+00  0.57997892E+00  0.43000939E+00
  0.51081618E+00  0.55414159E+00  0.81246868E+00