comment
   1.0000000000000000
   10.9202145373576691    0.0000000000000000    0.0000000000000000
    0.0000000000000000   10.9202145373576691    0.0000000000000000
    0.0000000000000000    0.0000000000000000   10.9202145373576691
   H   O   K
  111  56  1
Direct
 0.998615   0.153332   0.999827
 0.956695   0.149091   0.856614
 0.368293   0.999712   0.148209
 0.345239   0.995110   0.295632
 0.160890   0.577004   0.247880
 0.149979   0.463744   0.151253
 0.319852   0.353596   0.380948
 0.359734   0.338758   0.524038
 0.512720   0.762944   0.784709
 0.372677   0.799230   0.748124
 0.849354   0.147814   0.619450
 0.996502   0.160718   0.640585
 0.350181   0.636577   0.999812
 0.414434   0.516237   0.939240
 0.998712   0.502557   0.771438
 1.000000   0.353296   0.770710
 0.151669   0.522708   0.999202
 0.148896   0.378501   0.960757
 0.147680   0.496553   0.548179
 0.147738   0.348985   0.570650
 0.489957   0.812327   0.147998
 0.437082   0.804576   0.287383
 0.572147   0.524110   0.489132
 0.575179   0.652983   0.413866
 0.392445   0.274365   0.148212
 0.389214   0.423599   0.148023
 0.287644   0.567110   0.731348
 0.147901   0.561819   0.783422
 0.919660   0.877919   0.405079
 0.986931   0.999896   0.458696
 0.167126   0.852969   0.589984
 0.151218   0.707089   0.617318
 0.407399   0.874647   0.898569
 0.400529   0.985359   0.998465
 0.720455   0.147889   0.214536
 0.572966   0.148122   0.191895
 0.994965   0.329028   0.510131
 0.958393   0.395929   0.381791
 0.751785   0.801524   0.293884
 0.781805   0.811550   0.147993
 0.344573   0.147953   0.740187
 0.301854   0.289774   0.758672
 0.752579   0.999741   0.152737
 0.603436   1.000000   0.148106
 0.289879   0.999681   0.764341
 0.148064   0.999384   0.810772
 0.656400   0.499695   0.988653
 0.614360   0.375441   0.917416
 0.994932   0.643848   0.153289
 0.997476   0.666826   0.300776
 0.860499   0.923649   0.990859
 0.999531   0.977822   0.989215
 0.167830   0.867671   0.975316
 0.147756   0.732967   0.914212
 0.799702   0.224617   0.986716
 0.661064   0.169836   0.993483
 0.492241   0.147804   0.378620
 0.344367   0.147961   0.358645
 0.994373   0.407027   0.975754
 0.895709   0.518592   0.985395
 0.757202   0.797346   0.728175
 0.679355   0.770112   0.603760
 0.575979   0.148306   0.673639
 0.678105   0.193919   0.772461
 0.771115   0.465180   0.685157
 0.769652   0.559456   0.800891
 0.999202   0.712561   0.996703
 0.918671   0.782631   0.892375
 0.152851   0.952437   0.388448
 0.149772   0.805353   0.363186
 0.150902   0.163526   0.618415
 0.153872   0.165023   0.469164
 0.400276   0.999811   0.507832
 0.386060   0.851247   0.510600
 0.288892   0.684282   0.173643
 0.159012   0.757297   0.181952
 0.540226   0.380295   0.686033
 0.535887   0.522069   0.732541
 0.713390   0.999282   0.474085
 0.667937   0.861118   0.440547
 0.873593   0.305136   0.162277
 0.998899   0.384916   0.148018
 0.812637   0.508927   0.371795
 0.817488   0.635652   0.450533
 0.604753   0.604270   0.182967
 0.748267   0.583147   0.147976
 0.182802   0.149160   0.148224
 0.158840   0.250981   0.254723
 0.150552   0.147967   0.850440
 0.152540   0.147970   0.999715
 0.370906   0.287514   1.000000
 0.424841   0.148357   0.997657
 0.348391   0.625183   0.505845
 0.336308   0.597636   0.359621
 0.999608   0.995743   0.208554
 0.985460   0.848887   0.185872
 0.613052   0.736896   0.997847
 0.761091   0.718199   0.997440
 0.998372   0.150762   0.204200
 0.995647   0.153145   0.353444
 0.502250   0.997820   0.731354
 0.647951   0.995753   0.699213
 0.996202   0.631075   0.577930
 0.993489   0.774082   0.620630
 0.625501   0.354899   0.147917
 0.575555   0.345358   0.288270
 0.759874   0.214507   0.407484
 0.703502   0.316457   0.500809
 0.885523   0.998696   0.672069
 0.999466   0.990686   0.768125
 0.634091   0.999894   0.999866
 0.999149   0.198856   0.920511
 0.406829   0.982264   0.229284
 0.175383   0.487524   0.235826
 0.385352   0.370912   0.442348
 0.446311   0.751237   0.722963
 0.922991   0.199166   0.602162
 0.413875   0.607664   0.940929
 0.999910   0.428189   0.718233
 0.199258   0.444634   0.998844
 0.148114   0.414816   0.507174
 0.512510   0.814125   0.236608
 0.574791   0.561889   0.405888
 0.339733   0.347892   0.161455
 0.230042   0.521775   0.786003
 0.999448   0.913219   0.432383
 0.147863   0.790723   0.654149
 0.351339   0.925654   0.949716
 0.654059   0.169530   0.155519
 0.996568   0.407978   0.464011
 0.816519   0.791269   0.230130
 0.369229   0.229661   0.773017
 0.676369   0.999961   0.203240
 0.235362   0.995654   0.837642
 0.624447   0.414696   0.999398
 0.999449   0.603220   0.235098
 0.911269   0.999174   0.999726
 0.148965   0.779899   0.992695
 0.749872   0.149039   0.999569
 0.411237   0.147928   0.421002
 0.908826   0.429151   0.999191
 0.757796   0.803359   0.636919
 0.599482   0.148454   0.762020
 0.779235   0.552757   0.710187
 0.976382   0.713491   0.908148
 0.204080   0.877482   0.377608
 0.202798   0.148528   0.544635
 0.354525   0.929896   0.544975
 0.244503   0.760564   0.149739
 0.486683   0.445965   0.720398
 0.642632   0.948839   0.445667
 0.912933   0.385947   0.179095
 0.815032   0.544408   0.456051
 0.684016   0.568680   0.211400
 0.148724   0.162997   0.231952
 0.204178   0.152346   0.924376
 0.447116   0.237018   0.999864
 0.309217   0.652259   0.427776
 0.969693   0.931729   0.150505
 0.687573   0.732668   0.945050
 0.944347   0.148002   0.277923
 0.565675   0.964415   0.674598
 0.961070   0.690370   0.638029
 0.650132   0.353251   0.235975
 0.706764   0.227284   0.480816
 0.909413   0.978647   0.758039
 0.634464   0.961631   0.913279
 0.147959   0.998478   0.147923
