comment
   1.0000000000000000
   11.837804543208598    0.0000000000000000    0.0000000000000000
    0.0000000000000000   11.837804543208598    0.0000000000000000
    0.0000000000000000    0.0000000000000000   11.837804543208598
   H   O   K
  111  56  1
Direct
 0.150006   0.998819   0.150140
 0.151839   0.874825   0.233233
 0.150873   0.294629   0.964554
 0.143544   0.150878   0.925009
 0.509074   0.756032   0.996610
 0.373744   0.693621   0.999925
 0.924759   0.163018   0.474741
 0.948959   0.152032   0.327856
 0.623439   0.795151   0.523276
 0.598644   0.816385   0.377619
 0.149755   0.418655   0.147914
 0.288291   0.363658   0.148599
 0.521156   0.577940   0.468472
 0.387740   0.580212   0.402009
 0.299546   0.358465   0.389838
 0.154568   0.391442   0.379580
 0.147532   0.490065   0.725602
 0.148566   0.605050   0.630417
 0.644235   0.999924   0.814183
 0.607915   0.869566   0.751211
 0.903985   0.148569   0.674563
 1.000000   0.162368   0.787887
 0.162032   0.999943   0.999928
 0.220645   0.862895   0.992659
 0.700022   0.288676   0.485053
 0.742006   0.153566   0.532580
 0.577261   0.339831   0.160813
 0.581430   0.369160   0.307121
 0.521532   0.151181   0.461166
 0.436194   0.261575   0.513969
 0.149609   0.149490   0.297946
 0.233119   0.147804   0.421569
 0.739367   0.221357   0.826238
 0.615138   0.161842   0.769184
 0.998208   0.152704   0.152385
 0.998410   0.301911   0.147986
 0.467999   0.689691   0.682340
 0.535581   0.644754   0.807564
 0.148755   0.741577   0.809437
 0.283657   0.802699   0.792520
 0.300700   0.147966   0.817007
 0.392979   0.149826   0.699809
 0.364850   0.995652   0.908845
 0.482814   1.000000   0.999956
 0.996441   0.575003   0.149956
 0.998265   0.693263   0.241027
 0.843288   0.380119   0.680205
 0.930474   0.357264   0.799090
 0.473725   0.445548   0.998161
 0.353127   0.357889   0.995897
 0.147668   0.480299   0.999968
 0.147621   0.629571   0.999970
 0.998200   0.886482   0.151716
 0.996766   0.996893   0.252165
 0.756180   0.998922   0.525910
 0.795315   0.999963   0.381876
 0.363094   0.461007   0.616785
 0.349367   0.418194   0.759127
 0.311088   0.147807   0.147657
 0.460108   0.147968   0.148131
 0.434287   0.999879   0.306844
 0.406635   0.998402   0.160167
 0.592851   0.406082   0.790987
 0.605034   0.427793   0.643802
 0.776980   0.980163   0.155949
 0.642479   0.963217   0.217945
 0.998240   0.473419   0.998518
 0.903360   0.563344   0.926661
 0.998253   0.396540   0.357568
 0.998250   0.363859   0.503223
 0.996103   0.812952   0.460248
 0.998190   0.961575   0.473990
 0.660762   0.147939   0.293329
 0.708855   0.149640   0.152050
 0.866316   0.147899   0.999927
 0.994875   0.223372   0.998352
 0.702062   0.908283   1.000000
 0.758873   0.770285   0.999938
 0.837990   0.792121   0.217748
 0.704766   0.739377   0.176618
 0.851103   0.902779   0.728678
 0.963209   0.999894   0.713174
 0.147656   0.291075   0.595642
 0.147641   0.154599   0.656111
 0.611616   0.147894   0.999962
 0.462596   0.147887   0.999970
 0.280247   0.779436   0.524758
 0.149430   0.782987   0.453352
 0.563442   0.600714   0.234470
 0.451496   0.551316   0.149216
 0.316762   0.802429   0.147915
 0.430467   0.773307   0.239904
 0.995648   0.727512   0.687547
 0.998162   0.602654   0.605776
 0.147680   0.603028   0.288882
 0.148930   0.654835   0.148889
 0.846789   0.626454   0.419868
 0.753801   0.510119   0.428358
 0.997562   0.900948   0.941287
 0.998272   0.761260   0.993908
 0.383330   0.999558   0.633911
 0.507838   0.999899   0.551887
 0.707210   0.513099   0.968154
 0.707211   0.365880   0.992827
 0.773747   0.510117   0.148966
 0.810475   0.389389   0.228677
 0.149381   0.999878   0.761659
 0.147607   0.897774   0.652780
 0.766351   0.613073   0.651772
 0.775385   0.690288   0.779205
 0.150135   0.999897   0.426197
 0.147619   0.907432   0.147900
 0.145248   0.208842   0.995719
 0.419642   0.771578   0.986829
 0.988675   0.153172   0.410191
 0.656444   0.781364   0.439134
 0.200047   0.343344   0.160281
 0.450955   0.631057   0.444053
 0.234065   0.415989   0.417248
 0.147841   0.513866   0.637305
 0.575325   0.949147   0.782254
 0.992067   0.157397   0.696920
 0.147619   0.913923   0.972462
 0.704876   0.233261   0.557636
 0.528760   0.340155   0.238289
 0.452493   0.207802   0.441826
 0.147677   0.147850   0.389360
 0.703964   0.147849   0.784990
 0.945638   0.227463   0.153059
 0.459389   0.638442   0.757586
 0.238112   0.724102   0.802697
 0.378223   0.182980   0.783745
 0.391600   0.999839   0.996180
 0.981255   0.603590   0.235479
 0.916885   0.409770   0.725465
 0.382439   0.444456   0.998430
 0.170056   0.554943   0.952135
 0.998297   0.906141   0.241027
 0.724851   0.999918   0.440020
 0.338833   0.392323   0.672051
 0.385421   0.164594   0.198023
 0.368640   0.998109   0.243319
 0.584065   0.366981   0.708789
 0.688222   0.999967   0.147854
 0.990736   0.537919   0.934129
 0.969050   0.423135   0.440029
 0.961341   0.884192   0.505799
 0.730325   0.170315   0.238495
 0.903920   0.231199   0.997785
 0.730519   0.839329   0.947129
 0.789050   0.759474   0.147793
 0.885440   0.982368   0.757748
 0.149568   0.244226   0.674155
 0.537103   0.197712   0.982367
 0.238206   0.763283   0.445207
 0.537773   0.581206   0.148906
 0.407239   0.791516   0.153360
 0.998299   0.636165   0.690863
 0.200948   0.631888   0.220451
 0.782032   0.579408   0.375805
 0.979468   0.813573   0.921304
 0.435391   0.950330   0.577168
 0.756384   0.442650   0.999350
 0.820165   0.431380   0.148021
 0.147344   0.987368   0.671092
 0.769726   0.606538   0.742925
 0.243361   0.999973   0.441676
 0.913436   0.989083   0.995167
